20 50 
1 2 1
1 8 1
1 12 1
1 16 1
1 18 1
2 4 1
2 10 1
2 12 1
2 18 1
2 20 1
3 8 1
3 12 1
3 13 1
3 15 1
3 17 1
4 6 1
4 8 1
4 12 1
4 14 1
4 17 1
5 11 1
5 15 1
5 19 1
6 8 1
6 12 1
6 15 1
6 18 1
7 9 1
7 16 1
8 10 1
8 11 1
8 18 1
9 11 1
9 16 1
9 19 1
9 20 1
10 14 1
10 17 1
10 18 1
11 18 1
11 19 1
12 15 1
12 16 1
13 15 1
14 16 1
14 18 1
15 19 1
17 18 1
18 20 1
19 20 1
